NAME: cuum500.tsp
TYPE: TSP
COMMENT: User-generated TSP file
DIMENSION: 500
EDGE_WEIGHT_TYPE: EUC_2D
NODE_COORD_SECTION
1 3.0 85.0
2 182.0 260.0
3 325.0 443.0
4 155.0 132.0
5 369.0 329.0
6 178.0 106.0
7 85.0 270.0
8 398.0 384.0
9 80.0 272.0
10 482.0 13.0
11 110.0 148.0
12 415.0 162.0
13 445.0 26.0
14 219.0 354.0
15 49.0 306.0
16 264.0 369.0
17 218.0 485.0
18 391.0 235.0
19 84.0 352.0
20 417.0 133.0
21 39.0 36.0
22 476.0 332.0
23 70.0 329.0
24 424.0 119.0
25 421.0 378.0
26 485.0 492.0
27 335.0 152.0
28 148.0 289.0
29 361.0 308.0
30 413.0 313.0
31 195.0 209.0
32 409.0 195.0
33 74.0 499.0
34 119.0 75.0
35 208.0 354.0
36 377.0 269.0
37 408.0 197.0
38 176.0 277.0
39 62.0 126.0
40 77.0 172.0
41 154.0 43.0
42 73.0 294.0
43 414.0 167.0
44 302.0 324.0
45 336.0 496.0
46 242.0 243.0
47 461.0 265.0
48 434.0 362.0
49 162.0 188.0
50 421.0 367.0
51 262.0 489.0
52 261.0 39.0
53 396.0 117.0
54 312.0 404.0
55 133.0 101.0
56 161.0 280.0
57 97.0 52.0
58 330.0 172.0
59 242.0 88.0
60 437.0 212.0
61 317.0 256.0
62 132.0 50.0
63 321.0 320.0
64 394.0 55.0
65 460.0 248.0
66 500.0 216.0
67 490.0 364.0
68 489.0 8.0
69 495.0 187.0
70 161.0 70.0
71 113.0 169.0
72 23.0 390.0
73 451.0 300.0
74 91.0 440.0
75 353.0 314.0
76 43.0 254.0
77 133.0 108.0
78 124.0 266.0
79 431.0 33.0
80 89.0 329.0
81 109.0 495.0
82 47.0 78.0
83 108.0 273.0
84 280.0 318.0
85 241.0 327.0
86 184.0 245.0
87 75.0 15.0
88 335.0 476.0
89 395.0 393.0
90 20.0 307.0
91 444.0 27.0
92 254.0 245.0
93 51.0 12.0
94 111.0 67.0
95 252.0 187.0
96 111.0 395.0
97 2.0 100.0
98 183.0 379.0
99 14.0 251.0
100 465.0 343.0
101 271.0 85.0
102 385.0 420.0
103 483.0 454.0
104 424.0 408.0
105 280.0 105.0
106 64.0 289.0
107 128.0 448.0
108 333.0 109.0
109 461.0 166.0
110 383.0 138.0
111 106.0 10.0
112 189.0 79.0
113 25.0 233.0
114 420.0 258.0
115 457.0 461.0
116 257.0 458.0
117 210.0 364.0
118 66.0 187.0
119 386.0 18.0
120 447.0 365.0
121 484.0 260.0
122 486.0 211.0
123 64.0 72.0
124 47.0 435.0
125 268.0 288.0
126 452.0 114.0
127 24.0 294.0
128 268.0 177.0
129 446.0 222.0
130 171.0 397.0
131 363.0 422.0
132 220.0 62.0
133 57.0 70.0
134 317.0 488.0
135 312.0 409.0
136 429.0 300.0
137 365.0 90.0
138 210.0 282.0
139 130.0 274.0
140 309.0 88.0
141 426.0 8.0
142 469.0 221.0
143 392.0 176.0
144 304.0 421.0
145 246.0 252.0
146 159.0 11.0
147 479.0 470.0
148 175.0 265.0
149 187.0 227.0
150 21.0 431.0
151 6.0 456.0
152 236.0 154.0
153 426.0 71.0
154 354.0 117.0
155 67.0 375.0
156 488.0 112.0
157 94.0 219.0
158 127.0 16.0
159 46.0 492.0
160 330.0 458.0
161 267.0 46.0
162 477.0 51.0
163 91.0 78.0
164 350.0 272.0
165 165.0 282.0
166 56.0 451.0
167 366.0 408.0
168 239.0 461.0
169 220.0 120.0
170 32.0 136.0
171 239.0 88.0
172 346.0 209.0
173 28.0 350.0
174 493.0 239.0
175 208.0 311.0
176 262.0 175.0
177 289.0 295.0
178 497.0 444.0
179 115.0 274.0
180 351.0 163.0
181 81.0 28.0
182 489.0 153.0
183 465.0 317.0
184 318.0 185.0
185 256.0 33.0
186 221.0 140.0
187 429.0 194.0
188 438.0 161.0
189 357.0 219.0
190 11.0 463.0
191 215.0 454.0
192 410.0 38.0
193 366.0 290.0
194 313.0 194.0
195 202.0 189.0
196 402.0 169.0
197 391.0 248.0
198 112.0 279.0
199 409.0 443.0
200 69.0 442.0
201 20.0 442.0
202 21.0 225.0
203 164.0 77.0
204 358.0 500.0
205 454.0 200.0
206 393.0 252.0
207 145.0 79.0
208 53.0 124.0
209 283.0 446.0
210 271.0 12.0
211 30.0 378.0
212 415.0 337.0
213 461.0 139.0
214 484.0 490.0
215 54.0 331.0
216 252.0 25.0
217 183.0 39.0
218 29.0 148.0
219 334.0 325.0
220 459.0 415.0
221 474.0 392.0
222 112.0 255.0
223 165.0 33.0
224 342.0 165.0
225 198.0 206.0
226 268.0 367.0
227 311.0 98.0
228 131.0 420.0
229 459.0 138.0
230 214.0 231.0
231 136.0 302.0
232 224.0 70.0
233 322.0 500.0
234 409.0 197.0
235 235.0 56.0
236 68.0 5.0
237 30.0 150.0
238 44.0 6.0
239 46.0 488.0
240 488.0 185.0
241 98.0 315.0
242 312.0 140.0
243 426.0 95.0
244 42.0 82.0
245 312.0 165.0
246 212.0 138.0
247 473.0 16.0
248 150.0 304.0
249 441.0 293.0
250 80.0 50.0
251 186.0 78.0
252 349.0 168.0
253 192.0 273.0
254 283.0 363.0
255 355.0 186.0
256 87.0 238.0
257 106.0 57.0
258 401.0 131.0
259 477.0 126.0
260 450.0 34.0
261 121.0 59.0
262 215.0 13.0
263 400.0 260.0
264 254.0 8.0
265 357.0 176.0
266 444.0 27.0
267 169.0 17.0
268 237.0 467.0
269 218.0 19.0
270 11.0 432.0
271 339.0 153.0
272 431.0 331.0
273 302.0 235.0
274 498.0 112.0
275 435.0 426.0
276 358.0 126.0
277 176.0 432.0
278 340.0 473.0
279 280.0 277.0
280 474.0 444.0
281 404.0 206.0
282 227.0 252.0
283 129.0 347.0
284 282.0 470.0
285 44.0 332.0
286 128.0 140.0
287 142.0 312.0
288 437.0 375.0
289 280.0 22.0
290 294.0 306.0
291 84.0 109.0
292 364.0 393.0
293 46.0 449.0
294 285.0 19.0
295 455.0 154.0
296 23.0 6.0
297 362.0 43.0
298 355.0 281.0
299 258.0 217.0
300 382.0 457.0
301 469.0 346.0
302 293.0 201.0
303 378.0 278.0
304 145.0 26.0
305 45.0 257.0
306 354.0 279.0
307 214.0 93.0
308 160.0 369.0
309 217.0 124.0
310 366.0 449.0
311 369.0 3.0
312 131.0 56.0
313 49.0 318.0
314 10.0 486.0
315 85.0 25.0
316 421.0 339.0
317 349.0 325.0
318 449.0 125.0
319 432.0 257.0
320 182.0 222.0
321 434.0 285.0
322 77.0 466.0
323 392.0 380.0
324 262.0 226.0
325 283.0 174.0
326 99.0 3.0
327 448.0 402.0
328 16.0 197.0
329 438.0 191.0
330 413.0 4.0
331 360.0 291.0
332 39.0 274.0
333 408.0 38.0
334 294.0 9.0
335 341.0 215.0
336 321.0 80.0
337 233.0 381.0
338 449.0 15.0
339 66.0 29.0
340 397.0 122.0
341 42.0 297.0
342 250.0 255.0
343 300.0 7.0
344 285.0 266.0
345 479.0 484.0
346 472.0 267.0
347 428.0 72.0
348 421.0 84.0
349 166.0 412.0
350 109.0 26.0
351 200.0 5.0
352 374.0 343.0
353 439.0 54.0
354 16.0 492.0
355 141.0 20.0
356 232.0 352.0
357 4.0 5.0
358 316.0 491.0
359 78.0 366.0
360 326.0 487.0
361 412.0 78.0
362 339.0 234.0
363 193.0 183.0
364 286.0 455.0
365 32.0 386.0
366 377.0 229.0
367 117.0 37.0
368 253.0 392.0
369 217.0 417.0
370 496.0 298.0
371 124.0 66.0
372 101.0 22.0
373 492.0 490.0
374 76.0 303.0
375 220.0 17.0
376 453.0 450.0
377 460.0 119.0
378 82.0 429.0
379 386.0 242.0
380 425.0 280.0
381 66.0 349.0
382 339.0 465.0
383 434.0 135.0
384 278.0 101.0
385 404.0 352.0
386 431.0 299.0
387 152.0 387.0
388 336.0 341.0
389 124.0 391.0
390 469.0 72.0
391 157.0 486.0
392 333.0 493.0
393 312.0 482.0
394 217.0 144.0
395 381.0 389.0
396 339.0 434.0
397 281.0 324.0
398 423.0 95.0
399 22.0 397.0
400 293.0 357.0
401 334.0 83.0
402 128.0 397.0
403 101.0 485.0
404 388.0 85.0
405 63.0 67.0
406 303.0 411.0
407 433.0 2.0
408 438.0 272.0
409 411.0 51.0
410 176.0 140.0
411 64.0 167.0
412 4.0 48.0
413 459.0 406.0
414 242.0 184.0
415 447.0 172.0
416 324.0 71.0
417 87.0 266.0
418 245.0 292.0
419 147.0 265.0
420 282.0 264.0
421 366.0 470.0
422 24.0 415.0
423 326.0 400.0
424 453.0 449.0
425 100.0 199.0
426 234.0 350.0
427 280.0 405.0
428 243.0 453.0
429 88.0 266.0
430 38.0 206.0
431 227.0 484.0
432 171.0 170.0
433 494.0 448.0
434 164.0 202.0
435 427.0 85.0
436 450.0 332.0
437 258.0 124.0
438 40.0 89.0
439 437.0 2.0
440 378.0 19.0
441 55.0 44.0
442 359.0 495.0
443 274.0 427.0
444 357.0 379.0
445 238.0 403.0
446 127.0 440.0
447 388.0 320.0
448 81.0 152.0
449 365.0 133.0
450 446.0 255.0
451 214.0 126.0
452 440.0 35.0
453 465.0 313.0
454 484.0 474.0
455 23.0 436.0
456 385.0 122.0
457 39.0 181.0
458 492.0 200.0
459 238.0 226.0
460 335.0 396.0
461 6.0 140.0
462 356.0 182.0
463 206.0 31.0
464 475.0 317.0
465 305.0 245.0
466 193.0 139.0
467 107.0 361.0
468 53.0 440.0
469 384.0 383.0
470 198.0 184.0
471 23.0 186.0
472 164.0 234.0
473 435.0 159.0
474 252.0 30.0
475 4.0 332.0
476 230.0 276.0
477 280.0 106.0
478 252.0 16.0
479 341.0 392.0
480 350.0 139.0
481 417.0 326.0
482 385.0 347.0
483 92.0 57.0
484 371.0 153.0
485 128.0 48.0
486 13.0 118.0
487 434.0 368.0
488 119.0 393.0
489 309.0 305.0
490 94.0 50.0
491 168.0 214.0
492 483.0 157.0
493 425.0 219.0
494 38.0 70.0
495 78.0 21.0
496 337.0 325.0
497 495.0 197.0
498 492.0 22.0
499 151.0 361.0
500 202.0 70.0
EOF





